BAYES
76
2 2 2 2 2 2 2 2 2 2 2 2 2 2 2 2 2 2 2 2 2 2 2 2 2 2 2 2 2 2 2 2 2 2 2 2 2 2 2 2 2 2 2 2 2 2 2 2 2 2 2 2 2 2 2 2 2 2 2 2 2 2 2 2 2 2 2 2 2 2 2 2 2 2 2 2
76
1 0
1 1
3 1 0 2
1 3
1 4
1 5
1 6
1 7
1 8
1 9
4 9 3 2 10
4 10 4 2 11
1 12
1 13
5 13 12 11 8 14
1 15
3 15 14 16
1 17
1 18
1 19
4 19 18 17 20
1 21
1 22
1 23
4 23 22 21 24
1 25
1 26
6 19 18 26 17 2 27
5 23 22 21 2 28
8 28 27 25 24 20 16 7 29
1 30
1 31
1 32
1 33
8 33 32 31 30 29 6 5 34
2 34 35
2 4 36
2 4 37
4 37 36 30 38
1 39
1 40
1 41
4 40 39 30 42
1 43
1 44
4 44 43 30 45
1 46
4 44 43 30 47
4 47 46 45 48
1 49
1 50
1 51
4 51 50 30 52
4 50 41 30 53
4 53 52 49 54
5 23 30 8 2 55
5 18 30 8 2 56
4 56 55 7 57
2 36 58
3 18 23 59
2 46 60
3 60 46 61
3 60 46 62
3 60 57 63
3 60 42 64
2 16 65
3 19 18 66
4 63 46 57 67
4 64 46 42 68
1 69
4 69 18 38 70
4 70 38 7 71
2 6 72
2 33 73
2 30 74
2 5 75

2
0.995 0.005
2
0.995 0.005
8
0.9999 0.0001 0.0 1.0 0.0 1.0 0.5 0.5
2
0.97 0.03
2
0.95 0.05
2
0.9 0.1
2
0.98 0.02
2
0.8 0.2
2
0.9 0.1
2
0.9999 0.0001
16
0.99 0.01 0.1 0.9 0.0 1.0 0.5 0.5 0.05 0.95 0.5 0.5 0.5 0.5 0.5 0.5
16
1.0 0.0 0.0 1.0 1.0 0.0 0.0 1.0 0.0 1.0 0.0 1.0 1.0 0.0 0.0 1.0
2
0.99 0.01
2
0.99 0.01
32
0.99 0.01 0.1 0.9 0.1 0.9 0.5 0.5 0.9 0.1 0.5 0.5 0.5 0.5 0.5 0.5 0.2 0.8 0.5 0.5 0.5 0.5 0.5 0.5 0.5 0.5 0.5 0.5 0.5 0.5 0.5 0.5
2
0.99 0.01
8
0.99 0.01 0.0 1.0 0.0 1.0 0.5 0.5
2
0.97 0.03
2
0.98 0.02
2
0.7 0.3
16
0.99 0.01 0.0 1.0 0.1 0.9 0.5 0.5 0.0 1.0 0.5 0.5 0.5 0.5 0.5 0.5
2
0.98 0.02
2
0.99 0.01
2
0.99 0.01
16
0.999 0.001 0.0 1.0 0.0 1.0 0.5 0.5 0.01 0.99 0.5 0.5 0.5 0.5 0.5 0.5
2
0.15 0.85
2
0.8 0.2
64
0.99 0.01 0.2 0.8 0.0 1.0 0.5 0.5 0.0 1.0 0.5 0.5 0.5 0.5 0.5 0.5 0.1 0.9 0.5 0.5 0.5 0.5 0.5 0.5 0.5 0.5 0.5 0.5 0.5 0.5 0.5 0.5 0.0 1.0 0.5 0.5 0.5 0.5 0.5 0.5 0.5 0.5 0.5 0.5 0.5 0.5 0.5 0.5 0.5 0.5 0.5 0.5 0.5 0.5 0.5 0.5 0.5 0.5 0.5 0.5 0.5 0.5 0.5 0.5
32
1.0 0.0 0.1 0.9 0.0 1.0 0.5 0.5 0.0 1.0 0.5 0.5 0.5 0.5 0.5 0.5 0.1 0.9 0.5 0.5 0.5 0.5 0.5 0.5 0.5 0.5 0.5 0.5 0.5 0.5 0.5 0.5
256
1.0 0.0 1.0 0.0 1.0 0.0 1.0 0.0 1.0 0.0 1.0 0.0 1.0 0.0 1.0 0.0 1.0 0.0 1.0 0.0 1.0 0.0 1.0 0.0 1.0 0.0 1.0 0.0 1.0 0.0 1.0 0.0 1.0 0.0 1.0 0.0 0.0 1.0 0.0 1.0 1.0 0.0 0.0 1.0 0.0 1.0 0.0 1.0 0.0 1.0 1.0 0.0 0.0 1.0 0.0 1.0 0.0 1.0 0.0 1.0 0.0 1.0 0.0 1.0 1.0 0.0 0.0 1.0 1.0 0.0 0.0 1.0 1.0 0.0 0.0 1.0 1.0 0.0 0.0 1.0 1.0 0.0 0.0 1.0 1.0 0.0 0.0 1.0 1.0 0.0 0.0 1.0 1.0 0.0 0.0 1.0 1.0 0.0 1.0 0.0 0.0 1.0 0.0 1.0 1.0 0.0 0.0 1.0 0.0 1.0 0.0 1.0 0.0 1.0 1.0 0.0 0.0 1.0 0.0 1.0 0.0 1.0 0.0 1.0 0.0 1.0 0.0 1.0 0.0 1.0 1.0 0.0 0.0 1.0 1.0 0.0 0.0 1.0 1.0 0.0 0.0 1.0 1.0 0.0 0.0 1.0 1.0 0.0 0.0 1.0 1.0 0.0 0.0 1.0 1.0 0.0 0.0 1.0 1.0 0.0 1.0 0.0 1.0 0.0 0.0 1.0 0.0 1.0 1.0 0.0 0.0 1.0 0.0 1.0 0.0 1.0 0.0 1.0 1.0 0.0 0.0 1.0 0.0 1.0 0.0 1.0 0.0 1.0 0.0 1.0 0.0 1.0 0.0 1.0 0.0 1.0 0.0 1.0 0.0 1.0 0.0 1.0 0.0 1.0 0.0 1.0 0.0 1.0 0.0 1.0 0.0 1.0 0.0 1.0 0.0 1.0 0.0 1.0 0.0 1.0 0.0 1.0 0.0 1.0 1.0 0.0 1.0 0.0 0.0 1.0 0.0 1.0 1.0 0.0 0.0 1.0 0.0 1.0 0.0 1.0 0.0 1.0 1.0 0.0 0.0 1.0 0.0 1.0 0.0 1.0 0.0 1.0 0.0 1.0 0.0 1.0
2
0.95 0.05
2
0.94 0.06
2
0.85 0.15
2
0.995 0.005
256
0.99 0.01 0.0 1.0 0.0 1.0 0.5 0.5 0.0 1.0 0.5 0.5 0.5 0.5 0.5 0.5 0.1 0.9 0.5 0.5 0.5 0.5 0.5 0.5 0.5 0.5 0.5 0.5 0.5 0.5 0.5 0.5 0.0 1.0 0.5 0.5 0.5 0.5 0.5 0.5 0.5 0.5 0.5 0.5 0.5 0.5 0.5 0.5 0.5 0.5 0.5 0.5 0.5 0.5 0.5 0.5 0.5 0.5 0.5 0.5 0.5 0.5 0.5 0.5 0.02 0.98 0.5 0.5 0.5 0.5 0.5 0.5 0.5 0.5 0.5 0.5 0.5 0.5 0.5 0.5 0.5 0.5 0.5 0.5 0.5 0.5 0.5 0.5 0.5 0.5 0.5 0.5 0.5 0.5 0.5 0.5 0.5 0.5 0.5 0.5 0.5 0.5 0.5 0.5 0.5 0.5 0.5 0.5 0.5 0.5 0.5 0.5 0.5 0.5 0.5 0.5 0.5 0.5 0.5 0.5 0.5 0.5 0.5 0.5 0.5 0.5 0.5 0.5 0.01 0.99 0.5 0.5 0.5 0.5 0.5 0.5 0.5 0.5 0.5 0.5 0.5 0.5 0.5 0.5 0.5 0.5 0.5 0.5 0.5 0.5 0.5 0.5 0.5 0.5 0.5 0.5 0.5 0.5 0.5 0.5 0.5 0.5 0.5 0.5 0.5 0.5 0.5 0.5 0.5 0.5 0.5 0.5 0.5 0.5 0.5 0.5 0.5 0.5 0.5 0.5 0.5 0.5 0.5 0.5 0.5 0.5 0.5 0.5 0.5 0.5 0.5 0.5 0.5 0.5 0.5 0.5 0.5 0.5 0.5 0.5 0.5 0.5 0.5 0.5 0.5 0.5 0.5 0.5 0.5 0.5 0.5 0.5 0.5 0.5 0.5 0.5 0.5 0.5 0.5 0.5 0.5 0.5 0.5 0.5 0.5 0.5 0.5 0.5 0.5 0.5 0.5 0.5 0.5 0.5 0.5 0.5 0.5 0.5 0.5 0.5 0.5 0.5 0.5 0.5 0.5 0.5 0.5 0.5 0.5 0.5 0.5 0.5 0.5 0.5 0.5 0.5
4
1.0 0.0 0.0 1.0
4
1.0 0.0 0.99000001 0.00999999
4
0.99000001 0.00999999 1.0 0.0
16
0.99900001 0.00099999 0.25 0.75 0.00099999 0.99900001 0.5 0.5 0.00099999 0.99900001 0.5 0.5 0.5 0.5 0.5 0.5
2
0.95 0.05
2
0.98 0.02
2
0.95 0.05
16
0.99 0.01 0.3 0.7 0.00999999 0.99000001 0.5 0.5 0.1 0.9 0.5 0.5 0.5 0.5 0.5 0.5
2
0.95 0.05
2
0.99 0.01
16
0.999 0.001 0.25 0.75 0.1 0.9 0.5 0.5 0.0 1.0 0.5 0.5 0.5 0.5 0.5 0.5
2
0.4 0.6
16
0.999 0.001 0.25 0.75 0.1 0.9 0.5 0.5 1.0 0.0 0.5 0.5 0.5 0.5 0.5 0.5
16
0.0 1.0 0.0 1.0 0.0 1.0 1.0 0.0 1.0 0.0 1.0 0.0 0.0 1.0 1.0 0.0
2
0.9 0.1
2
0.98 0.02
2
0.9 0.1
16
0.99000001 0.00999999 0.5 0.5 0.1 0.9 0.5 0.5 0.0 1.0 0.5 0.5 0.5 0.5 0.5 0.5
16
0.99000001 0.00999999 0.5 0.5 0.1 0.9 0.5 0.5 0.1 0.9 0.5 0.5 0.5 0.5 0.5 0.5
16
0.0 1.0 0.0 1.0 1.0 0.0 0.0 1.0 0.0 1.0 1.0 0.0 1.0 0.0 1.0 0.0
32
1.0 0.0 0.2 0.8 0.4 0.6 0.5 0.5 0.2 0.8 0.5 0.5 0.5 0.5 0.5 0.5 0.1 0.9 0.5 0.5 0.5 0.5 0.5 0.5 0.5 0.5 0.5 0.5 0.5 0.5 0.5 0.5
32
1.0 0.0 0.3 0.7 0.4 0.6 0.5 0.5 0.2 0.8 0.5 0.5 0.5 0.5 0.5 0.5 0.4 0.6 0.5 0.5 0.5 0.5 0.5 0.5 0.5 0.5 0.5 0.5 0.5 0.5 0.5 0.5
16
1.0 0.0 1.0 0.0 0.0 1.0 1.0 0.0 1.0 0.0 0.0 1.0 0.0 1.0 0.0 1.0
4
0.99 0.01 0.1 0.9
8
1.0 0.0 0.5 0.5 0.5 0.5 0.5 0.5
4
0.98 0.02 1.0 0.0
8
1.0 0.0 1.0 0.0 0.05 0.95 1.0 0.0
8
0.99900001 0.00099999 1.0 0.0 0.00099999 0.99900001 1.0 0.0
8
1.0 0.0 0.0 1.0 0.1 0.9 0.5 0.5
8
1.0 0.0 0.0 1.0 0.3 0.7 0.5 0.5
4
0.8 0.2 0.2 0.8
8
0.9999 0.0001 0.25 0.75 0.7 0.3 0.5 0.5
16
1.0 0.0 1.0 0.0 1.0 0.0 0.0 1.0 0.0 1.0 0.0 1.0 1.0 0.0 0.0 1.0
16
0.0 1.0 0.0 1.0 0.0 1.0 1.0 0.0 1.0 0.0 1.0 0.0 0.0 1.0 1.0 0.0
2
0.99 0.01
16
0.99900001 0.00099999 0.0 1.0 0.25 0.75 0.5 0.5 0.25 0.75 0.5 0.5 0.5 0.5 0.5 0.5
16
1.0 0.0 1.0 0.0 0.0 1.0 1.0 0.0 1.0 0.0 0.0 1.0 0.0 1.0 0.0 1.0
4
0.99900001 0.00099999 0.00099999 0.99900001
4
0.99900001 0.00099999 0.00099999 0.99900001
4
0.99900001 0.00099999 0.2 0.8
4
0.99000001 0.00999999 0.00999999 0.99000001